(declare-fun temp118337_1 () (_ BitVec 64))
(declare-fun temp118337_2 () (_ BitVec 64))
(declare-fun var77740 () (_ BitVec 64))
(declare-fun k!0 () Bool)
(declare-fun ARGNAME_input_1_NAMEEND_DIM () (_ BitVec 64))
(declare-fun ARGNAME_data_format_NAMEEND_STRFMT () (_ BitVec 64))
(declare-fun temp118337_3 () (_ BitVec 64))
(declare-fun ARGNAME_input_2_NAMEEND_DIM () (_ BitVec 64))
(declare-fun var77770 () (_ BitVec 64))
(declare-fun temp118337_4 () (_ BitVec 64))
(declare-fun temp118337_5 () (_ BitVec 64))
(declare-fun ARGNAME_input_1_NAMEEND_DIMSIZE
             ()
             (Array (_ BitVec 64) (_ BitVec 64)))
(declare-fun temp118337_6 () (_ BitVec 64))
(declare-fun temp118337_7 () (_ BitVec 64))
(declare-fun temp118337_8 () (_ BitVec 64))
(declare-fun temp118337_9 () (_ BitVec 64))
(declare-fun temp118337_10 () (_ BitVec 64))
(declare-fun temp118337_11 () (_ BitVec 64))
(declare-fun temp118337_12 () (_ BitVec 64))
(declare-fun temp118337_13 () (_ BitVec 64))
(declare-fun temp118337_14 () (_ BitVec 64))
(declare-fun temp118337_15 () (_ BitVec 64))
(declare-fun temp118337_16 () (_ BitVec 64))
(declare-fun temp118337_17 () (_ BitVec 64))
(declare-fun temp118337_18 () (_ BitVec 64))
(declare-fun var77799 () (_ BitVec 64))
(declare-fun temp118337_19 () (_ BitVec 64))
(declare-fun ARGNAME_input_2_NAMEEND_DIMSIZE
             ()
             (Array (_ BitVec 64) (_ BitVec 64)))
(declare-fun temp118337_20 () (_ BitVec 64))
(declare-fun temp118337_21 () (_ BitVec 64))
(declare-fun temp118337_22 () (_ BitVec 64))
(declare-fun temp118337_23 () (_ BitVec 64))
(declare-fun temp118337_24 () (_ BitVec 64))
(declare-fun temp118337_25 () (_ BitVec 64))
(declare-fun temp118337_26 () (_ BitVec 64))
(declare-fun temp118337_27 () (_ BitVec 64))
(declare-fun temp118337_28 () (_ BitVec 64))
(declare-fun temp118337_29 () (_ BitVec 64))
(declare-fun temp118337_30 () (_ BitVec 64))
(declare-fun temp118337_31 () (_ BitVec 64))
(declare-fun temp118337_32 () (_ BitVec 64))
(declare-fun var77832 () (_ BitVec 64))
(declare-fun temp118337_33 () (_ BitVec 64))
(declare-fun temp118337_34 () (_ BitVec 64))
(declare-fun var77833 () (_ BitVec 64))
(declare-fun var77834 () (_ BitVec 64))
(declare-fun temp118337_35 () (_ BitVec 64))
(declare-fun temp118337_36 () (_ BitVec 64))
(declare-fun var275510 () (_ BitVec 64))
(declare-fun temp118337_37 () (_ BitVec 64))
(declare-fun var275528 () (_ BitVec 64))
(declare-fun temp118337_38 () (_ BitVec 64))
(declare-fun temp118337_39 () (_ BitVec 64))
(declare-fun var406582 () (_ BitVec 64))
(declare-fun temp118337_40 () (_ BitVec 64))
(declare-fun var406600 () (_ BitVec 64))
(declare-fun temp118337_41 () (_ BitVec 64))
(declare-fun temp118337_42 () (_ BitVec 64))
(declare-fun var537654 () (_ BitVec 64))
(declare-fun temp118337_43 () (_ BitVec 64))
(declare-fun var537672 () (_ BitVec 64))
(declare-fun temp118337_44 () (_ BitVec 64))
(declare-fun temp118337_46 () (_ BitVec 64))
(declare-fun temp118337_45 () (_ BitVec 64))
(declare-fun temp118337_48 () (_ BitVec 64))
(declare-fun temp118337_47 () (_ BitVec 64))
(declare-fun temp118337_50 () (_ BitVec 64))
(declare-fun temp118337_49 () (_ BitVec 64))
(declare-fun temp118337_52 () (_ BitVec 64))
(declare-fun temp118337_51 () (_ BitVec 64))
(declare-fun temp118337_54 () (_ BitVec 64))
(declare-fun temp118337_53 () (_ BitVec 64))
(declare-fun temp118337_55 () (_ BitVec 64))
(declare-fun var730187 () (_ BitVec 64))
(declare-fun var730166 () (_ BitVec 64))
(declare-fun var664598 () (_ BitVec 64))
(declare-fun temp118337_56 () (_ BitVec 64))
(declare-fun temp118337_57 () (_ BitVec 64))
(declare-fun var795723 () (_ BitVec 64))
(declare-fun var795702 () (_ BitVec 64))
(declare-fun var664608 () (_ BitVec 64))
(declare-fun temp118337_58 () (_ BitVec 64))
(declare-fun temp118337_59 () (_ BitVec 64))
(declare-fun var861259 () (_ BitVec 64))
(declare-fun var861238 () (_ BitVec 64))
(declare-fun var664611 () (_ BitVec 64))
(declare-fun temp118337_60 () (_ BitVec 64))
(declare-fun temp118337_61 () (_ BitVec 64))
(declare-fun var1057842 () (_ BitVec 64))
(declare-fun temp118337_62 () (_ BitVec 64))
(declare-fun var1123378 () (_ BitVec 64))
(declare-fun temp118337_63 () (_ BitVec 64))
(declare-fun var1188914 () (_ BitVec 64))
(declare-fun temp118337_65 () (_ BitVec 64))
(declare-fun temp118337_64 () (_ BitVec 64))
(declare-fun temp118337_67 () (_ BitVec 64))
(declare-fun temp118337_66 () (_ BitVec 64))
(declare-fun temp118337_68 () (_ BitVec 64))
(declare-fun var78544 () (_ BitVec 64))
(declare-fun temp118337_69 () (_ BitVec 64))
(declare-fun var78545 () (_ BitVec 64))
(assert (or (= ARGNAME_data_format_NAMEEND_STRFMT #x0000000000000000)
    (= ARGNAME_data_format_NAMEEND_STRFMT #x0000000000000001)
    (= ARGNAME_data_format_NAMEEND_STRFMT #x0000000000000002)
    (= ARGNAME_data_format_NAMEEND_STRFMT #x0000000000000003)
    (= ARGNAME_data_format_NAMEEND_STRFMT #x0000000000000004)
    (= ARGNAME_data_format_NAMEEND_STRFMT #x0000000000000005)))
(assert (= temp118337_1 #x0000000000000005))
(assert (= var77740
   (ite (= ARGNAME_input_1_NAMEEND_DIM temp118337_1)
        #x0000000000000001
        #x0000000000000000)))
(assert (= temp118337_2 #x0000000000000001))
(assert (= var77740 temp118337_2))
(assert (= temp118337_3 #x0000000000000005))
(assert (= var77770
   (ite (= ARGNAME_input_2_NAMEEND_DIM temp118337_3)
        #x0000000000000001
        #x0000000000000000)))
(assert (= temp118337_4 #x0000000000000001))
(assert (= var77770 temp118337_4))
(assert (= temp118337_5 #x0000000000000000))
(assert (= temp118337_6 (select ARGNAME_input_1_NAMEEND_DIMSIZE temp118337_5)))
(assert (= temp118337_7 #x0000000000000001))
(assert (= temp118337_8 (select ARGNAME_input_1_NAMEEND_DIMSIZE temp118337_7)))
(assert (= temp118337_9 #x0000000000000002))
(assert (= temp118337_10 (select ARGNAME_input_1_NAMEEND_DIMSIZE temp118337_9)))
(assert (= temp118337_11 #x0000000000000003))
(assert (= temp118337_12 (select ARGNAME_input_1_NAMEEND_DIMSIZE temp118337_11)))
(assert (= temp118337_13 #x0000000000000004))
(assert (= temp118337_14 (select ARGNAME_input_1_NAMEEND_DIMSIZE temp118337_13)))
(assert (= temp118337_15 #x0000000000000005))
(assert (= temp118337_16 (select ARGNAME_input_1_NAMEEND_DIMSIZE temp118337_15)))
(assert (= temp118337_17 #x0000000000000003))
(assert (= temp118337_18 (select ARGNAME_input_1_NAMEEND_DIMSIZE temp118337_17)))
(assert (= var77799 temp118337_18))
(assert (= temp118337_19 #x0000000000000000))
(assert (= temp118337_20 (select ARGNAME_input_2_NAMEEND_DIMSIZE temp118337_19)))
(assert (= temp118337_21 #x0000000000000001))
(assert (= temp118337_22 (select ARGNAME_input_2_NAMEEND_DIMSIZE temp118337_21)))
(assert (= temp118337_23 #x0000000000000002))
(assert (= temp118337_24 (select ARGNAME_input_2_NAMEEND_DIMSIZE temp118337_23)))
(assert (= temp118337_25 #x0000000000000003))
(assert (= temp118337_26 (select ARGNAME_input_2_NAMEEND_DIMSIZE temp118337_25)))
(assert (= temp118337_27 #x0000000000000004))
(assert (= temp118337_28 (select ARGNAME_input_2_NAMEEND_DIMSIZE temp118337_27)))
(assert (= temp118337_29 #x0000000000000005))
(assert (= temp118337_30 (select ARGNAME_input_2_NAMEEND_DIMSIZE temp118337_29)))
(assert (= temp118337_31 #x0000000000000004))
(assert (= temp118337_32 (select ARGNAME_input_2_NAMEEND_DIMSIZE temp118337_31)))
(assert (= var77832 temp118337_32))
(assert (= temp118337_33 #x0000000000000004))
(assert (= temp118337_34 (select ARGNAME_input_1_NAMEEND_DIMSIZE temp118337_33)))
(assert (= var77833 temp118337_34))
(assert (= var77834 (ite (= var77832 var77833) #x0000000000000001 #x0000000000000000)))
(assert (= temp118337_35 #x0000000000000001))
(assert (= var77834 temp118337_35))
(assert (= temp118337_36 #x0000000000000001))
(assert (= var275510 temp118337_36))
(assert (= temp118337_37 #x0000000000000001))
(assert (= var275528
   (ite (bvslt var275510 temp118337_37) #x0000000000000001 #x0000000000000000)))
(assert (= temp118337_38 #x0000000000000000))
(assert (= var275528 temp118337_38))
(assert (= temp118337_39 #x0000000000000001))
(assert (= var406582 temp118337_39))
(assert (= temp118337_40 #x0000000000000001))
(assert (= var406600
   (ite (bvslt var406582 temp118337_40) #x0000000000000001 #x0000000000000000)))
(assert (= temp118337_41 #x0000000000000000))
(assert (= var406600 temp118337_41))
(assert (= temp118337_42 #x0000000000000001))
(assert (= var537654 temp118337_42))
(assert (= temp118337_43 #x0000000000000001))
(assert (= var537672
   (ite (bvslt var537654 temp118337_43) #x0000000000000001 #x0000000000000000)))
(assert (= temp118337_44 #x0000000000000000))
(assert (= var537672 temp118337_44))
(assert (= temp118337_46 #x0000000000000000))
(assert (= temp118337_45 temp118337_46))
(assert (= temp118337_48 #x0000000000000000))
(assert (= temp118337_47 temp118337_48))
(assert (= temp118337_50 #x00000000000000ff))
(assert (= temp118337_49 temp118337_50))
(assert (= temp118337_52 #x00000000000000ff))
(assert (= temp118337_51 temp118337_52))
(assert (= temp118337_54 #x00000000000000ff))
(assert (= temp118337_53 temp118337_54))
(assert (= temp118337_55 #x0000000000000000))
(assert (= var730187 temp118337_55))
(assert (= var730166 var730187))
(assert (= var664598 var730166))
(assert (= temp118337_56 #x0000000000000000))
(assert (= var664598 temp118337_56))
(assert (= temp118337_57 #x0000000000000000))
(assert (= var795723 temp118337_57))
(assert (= var795702 var795723))
(assert (= var664608 var795702))
(assert (= temp118337_58 #x0000000000000000))
(assert (= var664608 temp118337_58))
(assert (= temp118337_59 #x0000000000000000))
(assert (= var861259 temp118337_59))
(assert (= var861238 var861259))
(assert (= var664611 var861238))
(assert (= temp118337_60 #x0000000000000000))
(assert (= var664611 temp118337_60))
(assert (= temp118337_61 #x0000000000008000))
(assert (= var1057842 temp118337_61))
(assert (= temp118337_62 #x0000000000040000))
(assert (= var1123378 temp118337_62))
(assert (= temp118337_63 #x0000000000200000))
(assert (= var1188914 temp118337_63))
(assert (= temp118337_65 #x0000000000000001))
(assert (= temp118337_64 temp118337_65))
(assert (= temp118337_67 #x0000000000000001))
(assert (= temp118337_66 temp118337_67))
(assert (= temp118337_68 #x0000000000000000))
(assert (= var78544 temp118337_68))
(assert (= temp118337_69 #x0000000000000001))
(assert (= var78545 (bvadd var78544 temp118337_69)))
(model-add temp118337_1 () (_ BitVec 64) #x0000000000000005)
(model-add temp118337_2 () (_ BitVec 64) #x0000000000000001)
(model-add var77740 () (_ BitVec 64) #x0000000000000001)
(model-del k!0)
(model-add ARGNAME_input_1_NAMEEND_DIM
           ()
           (_ BitVec 64)
           (ite k!0 #x0000000000000005 (bvnot #x0000000000000005)))

